NumGames = 9;
NumReferees = 23;
NumFields = 3;
game_id = [3491, 3492, 3493, 3494, 3495, 3528, 3529, 3530, 3604];
game_start = [930, 600, 720, 720, 840, 600, 960, 1110, 765];
game_end = [1050, 720, 840, 840, 960, 720, 1080, 1230, 885];
difficulty = [2, 2, 2, 2, 2, 3, 3, 3, 1];
game_field = [1, 1, 2, 1, 2, 2, 2, 2, 3];
referee_id = [2414, 2468, 2777, 3260, 3261, 3263, 3267, 3517, 3524, 3526, 3734, 7485, 7486, 7496, 7498, 7500, 7503, 7506, 7533, 7550, 7552, 7554, 7567];
main_exp = [54, 124, 67, 147, 36, 135, 36, 34, 12, 57, 21, 0, 14, 0, 2, 0, 18, 1, 6, 2, 1, 0, 4];
assist_exp = [100, 81, 50, 99, 66, 101, 133, 14, 61, 106, 3, 29, 66, 15, 24, 9, 59, 42, 24, 15, 8, 0, 25];
available_slots = array3d(1..NumReferees, 1..3, 1..2,[
  780,1440, 0,0, 0,0,
  600,1080, 0,0, 0,0,
  660,1020, 0,0, 0,0,
  0,847, 0,0, 0,0,
  720,900, 0,0, 0,0,
  0,1440, 0,0, 0,0,
  1020,1440, 0,0, 0,0,
  881,1361, 0,0, 0,0,
  0,1440, 0,0, 0,0,
  0,1440, 0,0, 0,0,
  600,720, 0,0, 0,0,
  540,899, 0,0, 0,0,
  0,1440, 0,0, 0,0,
  0,1440, 0,0, 0,0,
  690,960, 0,0, 0,0,
  0,1440, 0,0, 0,0,
  840,1380, 0,0, 0,0,
  900,1410, 0,0, 0,0,
  839,1440, 0,0, 0,0,
  840,1080, 0,0, 0,0,
  600,720, 0,0, 0,0,
  1080,1356, 0,0, 0,0,
  60,810, 0,0, 0,0,
]);